n_res = 4;
rc = [ 37, 43, 44, 33 ];
n_tasks = 30;
d = [ 8, 6, 4, 4, 10, 3, 1, 5, 2, 3, 7, 3, 4, 5, 1, 4, 8, 5, 7, 6, 7, 6, 5, 6, 7, 3, 10, 8, 9, 2 ];
rr = [| 8, 5, 8, 5, 1, 3, 1, 4, 8, 6, 2, 6, 2, 8, 6, 10, 6, 8, 6, 6, 2, 3, 10, 9, 2, 1, 8, 6, 10, 4
      | 7, 3, 4, 5, 3, 10, 7, 8, 8, 2, 8, 3, 10, 7, 5, 5, 6, 1, 10, 6, 6, 9, 6, 4, 6, 8, 7, 7, 4, 5
      | 5, 9, 8, 3, 2, 6, 10, 2, 2, 5, 5, 10, 9, 4, 5, 3, 4, 5, 7, 10, 5, 9, 8, 1, 9, 8, 7, 3, 6, 8
      | 2, 6, 8, 4, 6, 8, 5, 10, 4, 9, 2, 5, 4, 7, 4, 5, 2, 2, 3, 3, 2, 3, 5, 6, 8, 6, 6, 3, 7, 3 |];
suc = [ { 2 }, 
        { 3 }, 
        { 4 }, 
        { 5 }, 
        { 6 }, 
        { 7 }, 
        { 8 }, 
        { 9 }, 
        { 10 }, 
        { 11 }, 
        { 12 }, 
        { 13 }, 
        { 14 }, 
        { 15 }, 
        { 16 }, 
        { 17 }, 
        { 18 }, 
        { 19 }, 
        { 20 }, 
        { 21 }, 
        { 22 }, 
        { 23 }, 
        { 24 }, 
        { 25 }, 
        { 26 }, 
        { 27 }, 
        { 28 }, 
        { 29 }, 
        { 30 }, 
        {  }]; 
